p cnf 475 2262
6 -14 -44 -16 -28 0
-25 -22 7 12 39 0
16 -38 10 22 -13 0
43 -17 -24 7 -45 0
32 -20 28 19 -12 0
19 -31 -9 -20 -34 0
16 17 1 7 23 0
12 20 -46 -29 17 0
-13 -41 18 9 29 0
-50 -15 -43 -11 -32 0
-39 -43 41 -1 11 0
-12 -6 -41 28 -38 0
14 3 -35 29 4 0
18 -36 24 -7 -34 0
17 -21 32 -47 27 0
-50 27 -34 -36 49 0
7 -26 -39 -31 -38 0
29 5 49 -24 7 0
-1 -40 12 -37 -5 0
20 26 -4 -3 34 0
43 -5 -34 -33 -12 0
3 20 -34 -19 -27 0
-35 -28 11 18 1 0
-37 -3 14 -48 36 0
7 -45 33 12 40 0
44 16 -26 -50 -36 0
-38 -34 30 -28 -15 0
9 19 -30 15 -33 0
4 -41 -25 -26 21 0
25 8 37 42 -11 0
-39 44 -33 28 16 0
-32 9 -35 -29 -50 0
6 -2 32 -14 17 0
34 37 50 -47 -18 0
31 -10 43 41 28 0
47 50 28 21 -11 0
-15 50 -6 -39 -8 0
-24 -38 -16 -1 -12 0
-40 -4 28 -18 -34 0
-34 12 -25 -7 39 0
-46 -2 16 -36 -23 0
-17 -49 -7 -9 29 0
-40 -29 -24 12 -47 0
-26 33 11 -6 -23 0
24 -28 -38 -45 19 0
8 28 -50 10 -34 0
15 12 -28 30 -1 0
-44 35 -3 -18 -29 0
6 -35 7 -24 -19 0
-38 27 42 22 23 0
-24 -28 -47 35 -21 0
-34 -7 -16 -35 1 0
44 30 -40 46 -45 0
41 16 -14 -22 45 0
-47 39 -50 -48 -11 0
-6 15 -34 -11 -44 0
13 -17 47 -16 -46 0
-19 48 -22 -38 -26 0
4 20 -24 -14 8 0
46 -10 -44 -34 -42 0
42 -8 -25 7 5 0
-43 1 11 -23 -22 0
8 -14 -23 43 25 0
9 33 -40 -5 -39 0
25 -41 -43 33 -21 0
14 8 34 50 -1 0
-21 -17 24 -20 -3 0
10 42 46 9 11 0
-10 -32 -12 -37 -9 0
-47 42 -36 -40 37 0
50 -23 14 38 -1 0
-5 50 -31 -36 7 0
-40 -29 13 -45 50 0
-33 19 11 -30 14 0
-3 -25 -33 42 18 0
8 -15 9 4 38 0
-30 -10 29 -26 21 0
-28 3 -11 -22 2 0
20 12 30 36 43 0
-22 44 -20 -8 -24 0
48 -30 -28 42 29 0
5 10 17 -38 -18 0
-49 -48 24 47 -21 0
47 -31 39 19 -25 0
47 10 16 32 -12 0
24 -20 7 44 -5 0
-31 -43 32 49 -7 0
36 49 14 37 -3 0
-44 -47 -41 -46 22 0
28 -13 -19 49 -22 0
-14 36 -5 -50 13 0
-50 -42 -21 30 3 0
-48 3 -7 -23 -32 0
16 -42 -17 -7 29 0
-39 -11 -43 2 -4 0
-18 -15 36 -9 -16 0
-6 13 33 20 -14 0
-47 2 -5 9 -35 0
-46 -32 29 -15 -30 0
-16 -4 27 -25 -18 0
19 -2 -26 -45 -40 0
-40 19 -12 39 45 0
29 -24 -15 -43 5 0
-13 42 43 -14 17 0
-41 46 -24 -29 11 0
16 18 -21 30 -19 0
34 43 40 -9 32 0
29 19 34 -42 -31 0
23 26 34 6 -15 0
42 -46 10 -16 32 0
-31 19 41 -28 10 0
-33 -11 -7 -26 -8 0
-44 -31 17 -16 42 0
35 17 -5 19 26 0
-39 -24 -37 12 10 0
-40 -24 15 -28 -1 0
14 11 -31 16 -21 0
30 -17 -19 32 -21 0
31 32 -47 -42 -23 0
-38 23 44 33 14 0
45 -17 48 7 42 0
19 -50 -29 -26 8 0
-23 -40 -34 -4 12 0
-13 -9 -12 34 7 0
12 33 -48 -17 2 0
-45 7 47 6 -17 0
-44 -3 -16 -2 12 0
32 4 14 -15 -40 0
-42 -28 36 -7 40 0
-17 31 -10 -33 29 0
1 -5 -44 49 -38 0
26 35 47 12 -1 0
-43 1 26 47 24 0
42 18 14 27 -9 0
-8 -25 36 30 -11 0
-7 18 -1 11 -20 0
41 -32 50 -11 10 0
2 -39 -24 -18 28 0
15 -19 2 44 -38 0
48 26 39 -21 -11 0
-11 47 -25 -7 13 0
-22 -37 6 47 42 0
-16 -42 -35 33 49 0
-22 -40 41 -28 -10 0
24 -46 27 31 21 0
16 15 -46 37 48 0
42 35 12 -40 27 0
-38 -28 -48 -40 20 0
1 30 6 28 39 0
-44 -28 24 29 -43 0
-31 -7 34 -42 13 0
2 36 -10 13 -18 0
-13 -22 -20 -21 -41 0
26 32 20 25 3 0
9 -44 -21 43 7 0
18 -38 -25 -13 -26 0
1 13 -11 -49 -6 0
-40 28 -21 35 -14 0
21 44 17 -27 19 0
45 -48 -38 17 -24 0
-38 -35 -40 -4 -5 0
45 -6 -41 5 38 0
45 -25 -21 -15 43 0
44 16 20 -28 -13 0
-32 -19 8 -35 -38 0
16 -29 -48 41 7 0
50 3 33 21 24 0
14 -9 -35 4 50 0
47 -34 -15 27 38 0
36 17 45 -23 4 0
-31 40 23 -7 -34 0
-45 -11 41 -17 22 0
-40 38 20 -14 43 0
6 20 31 23 48 0
-21 9 1 -26 -12 0
-29 43 46 15 30 0
-10 -43 30 -20 29 0
-39 -38 25 -26 -47 0
-42 24 -41 -49 -4 0
-3 39 -33 9 29 0
27 -7 32 49 16 0
-19 -48 34 -45 -4 0
14 43 -33 41 9 0
-35 28 37 -2 -38 0
-25 -44 -24 29 -37 0
-49 9 4 -36 42 0
15 -6 -45 26 -38 0
39 46 -26 18 -25 0
-33 -37 23 -34 41 0
-14 3 50 23 36 0
-30 3 22 46 1 0
-40 47 1 -45 34 0
-29 17 46 22 -23 0
-49 17 -16 23 3 0
-47 12 38 -30 17 0
-44 37 -14 -45 38 0
-50 -2 -48 -15 -11 0
-39 -22 16 -30 37 0
38 -41 1 -13 -20 0
32 46 34 1 21 0
9 -4 -5 -23 -7 0
-18 20 -11 49 -36 0
48 -26 -38 3 -31 0
-18 42 48 11 49 0
-10 19 -33 38 -36 0
-20 -36 -46 -26 47 0
-21 -18 8 -25 -27 0
-6 37 34 -43 48 0
20 -2 -1 42 14 0
29 -25 4 -36 -10 0
-20 -15 3 -18 27 0
35 32 31 -24 -1 0
43 -10 -23 7 -9 0
4 40 -38 -50 -1 0
-20 44 29 -17 10 0
-14 30 -17 45 23 0
-46 28 -42 50 -41 0
3 37 10 42 -30 0
-21 -24 49 20 50 0
-36 -10 -3 12 -50 0
41 -35 14 -2 37 0
16 9 -20 -12 -35 0
43 3 27 33 -17 0
29 -3 -4 -32 23 0
7 -25 -20 -41 -8 0
-48 18 49 2 33 0
17 11 41 33 -18 0
44 -31 -20 2 29 0
-30 15 49 -9 16 0
24 42 28 49 1 0
28 14 22 -11 37 0
1 42 -37 -36 -35 0
8 21 12 19 15 0
43 4 39 -29 40 0
-4 17 1 46 44 0
-19 -44 14 -39 40 0
-6 -13 26 -27 43 0
-46 23 -39 -5 15 0
-47 25 -27 36 22 0
17 23 45 27 49 0
13 -47 -11 -33 -40 0
5 37 46 -11 -33 0
44 40 -32 -47 -15 0
33 47 7 10 12 0
-8 43 -3 -28 -14 0
-5 12 -23 11 -14 0
26 46 -37 -50 -42 0
-48 -8 -47 7 38 0
4 21 5 -11 46 0
-32 18 45 -27 -16 0
28 34 -43 -44 -10 0
32 26 -47 -8 42 0
-33 -3 40 30 -4 0
13 -7 19 -16 -40 0
3 16 20 -10 36 0
6 -47 34 -28 -40 0
20 21 16 -38 1 0
10 30 -43 -12 46 0
-36 1 42 -35 12 0
46 50 39 -29 -13 0
-42 2 -17 -18 10 0
29 21 32 -6 -33 0
-48 24 -2 44 9 0
16 22 -10 17 20 0
-32 -27 -14 -29 -34 0
-45 23 -13 -27 -40 0
-14 -46 -36 47 41 0
-24 -33 41 39 -22 0
-11 -34 26 22 40 0
28 10 -19 11 34 0
23 -34 -19 40 22 0
41 -15 17 7 -44 0
-11 19 21 -9 10 0
-50 -35 4 31 -39 0
4 17 -6 -46 -45 0
19 -8 -49 34 5 0
-17 -12 -31 37 25 0
-8 17 -35 34 6 0
6 -26 -3 14 25 0
-34 36 -9 16 -17 0
48 -7 -39 3 -28 0
1 -26 22 19 -30 0
2 -42 -46 -15 34 0
15 29 5 39 13 0
-29 49 46 11 21 0
-4 -22 18 -32 -6 0
45 43 6 20 40 0
45 -11 -21 -38 -26 0
-42 26 43 -34 39 0
26 13 39 -10 11 0
45 25 39 43 -24 0
25 -44 48 -13 -50 0
39 32 -50 -7 25 0
21 35 -12 10 13 0
-26 -24 -15 -41 -18 0
10 2 -24 35 3 0
-42 -37 24 35 -3 0
-34 -12 -37 -8 7 0
20 -22 16 6 24 0
-4 30 31 41 -17 0
39 48 1 -18 3 0
-42 -21 -32 -15 45 0
20 49 33 -36 -15 0
-6 19 26 -25 22 0
-15 -43 -48 5 27 0
13 26 -23 -3 12 0
-20 19 -28 23 -41 0
24 -17 42 26 3 0
18 17 -22 -29 -23 0
5 40 -32 12 -22 0
48 -8 31 -49 42 0
-34 14 -23 -30 18 0
-8 18 40 30 -6 0
14 2 10 38 -31 0
18 40 32 -47 -23 0
-23 37 -22 19 -35 0
-10 -35 33 -21 -9 0
-27 -26 47 -21 -15 0
45 -27 4 35 38 0
-50 -14 -1 43 16 0
33 8 9 27 -15 0
-26 20 -36 -46 21 0
4 -36 -13 45 -10 0
-31 -11 27 39 7 0
3 12 8 46 -42 0
-41 29 42 24 26 0
24 23 13 7 45 0
-12 -31 15 -38 -4 0
45 21 -25 16 -18 0
2 -18 19 21 49 0
-37 -31 -12 17 -22 0
9 -28 -44 30 35 0
11 -40 22 30 -31 0
31 20 21 -25 7 0
41 47 -29 -22 3 0
47 -38 -19 28 -7 0
39 35 -30 -13 -3 0
-46 -20 44 26 -23 0
48 -43 49 16 20 0
-43 -37 -1 -50 41 0
18 21 49 43 11 0
23 47 16 28 50 0
-39 -13 41 -10 46 0
-44 50 29 4 24 0
21 -39 33 -15 31 0
4 30 39 42 -23 0
-29 25 2 37 44 0
29 -43 24 26 9 0
41 29 -21 33 -31 0
35 -41 -22 24 14 0
-28 4 35 -31 32 0
-6 -30 43 11 50 0
-50 11 44 -35 -46 0
14 -48 -49 45 10 0
1 -14 -25 33 -6 0
-22 10 -50 41 -37 0
-48 -12 -50 -32 1 0
22 16 9 10 40 0
-12 40 5 -38 -26 0
-37 -7 32 19 41 0
-45 24 3 -22 39 0
-37 1 -15 -43 6 0
15 -7 32 -22 45 0
-22 -18 24 45 -32 0
-28 48 -17 11 -16 0
-50 -27 46 9 37 0
-45 3 -22 -6 14 0
33 15 6 -31 -44 0
-34 24 17 -23 -39 0
40 -24 -28 -18 16 0
38 11 10 -21 4 0
42 3 -4 -8 -45 0
35 16 14 -42 45 0
-26 16 8 -14 41 0
-6 33 -45 39 12 0
40 31 7 17 15 0
1 3 2 -30 -26 0
29 -46 35 -39 9 0
-11 -24 -26 -36 -20 0
44 -43 48 9 -7 0
-27 14 19 -23 28 0
25 48 12 3 34 0
42 43 45 36 2 0
29 34 25 40 33 0
-25 -40 39 10 38 0
-43 7 -44 35 38 0
7 -21 1 35 -27 0
-33 -43 -2 7 -15 0
39 -37 5 -3 48 0
25 4 23 -21 -28 0
33 4 38 -41 -3 0
6 -9 5 24 -2 0
50 1 25 4 38 0
-14 -38 -26 -48 -1 0
-30 21 23 46 48 0
10 6 26 5 -37 0
-2 -19 -10 -39 46 0
-16 -48 43 -25 -18 0
-45 -22 35 26 -43 0
20 6 24 -29 -22 0
31 20 -22 -18 -50 0
10 14 -37 4 -32 0
-6 15 -39 -24 -21 0
29 6 -27 11 23 0
-25 10 -27 -20 33 0
-48 -13 40 -12 14 0
16 -18 -38 -45 -4 0
-39 3 -25 -31 -40 0
3 14 36 41 -22 0
40 30 -8 28 -15 0
22 -18 -50 -3 32 0
12 39 2 29 -5 0
-15 1 12 -24 -37 0
35 -32 -2 21 45 0
4 34 13 -41 17 0
-4 22 15 -1 -8 0
-39 11 7 38 -24 0
21 -12 48 -3 30 0
-42 28 8 1 -35 0
-25 29 48 40 35 0
-42 -9 -19 46 -10 0
-40 -14 -41 -2 -36 0
-15 -30 7 -49 -26 0
-45 -50 -32 -47 14 0
-23 -44 40 -42 46 0
39 28 32 49 20 0
-11 -49 41 27 43 0
-50 -9 -33 22 -43 0
-47 -36 -23 17 29 0
-7 -4 -26 -22 34 0
20 -30 13 -12 -9 0
40 35 39 9 -33 0
-27 -1 -50 40 41 0
-13 -35 10 -24 -12 0
-32 13 11 14 15 0
15 -21 -16 3 -4 0
40 11 30 1 9 0
-35 -45 28 -23 29 0
46 16 -21 -26 13 0
40 -48 -10 -32 39 0
-40 -8 46 -44 -37 0
34 -36 -1 30 39 0
-12 46 -47 43 23 0
32 29 -47 14 -19 0
23 24 7 37 -49 0
-27 -2 -10 -7 -1 0
47 12 -4 -39 38 0
-48 42 5 -19 50 0
21 -39 22 -6 44 0
-37 -44 -34 50 12 0
-15 44 45 2 -29 0
35 43 -32 -34 20 0
-10 -45 -41 -25 43 0
-35 40 -25 -50 -19 0
22 -21 47 -10 -34 0
15 47 -12 -24 -26 0
-19 33 4 -27 5 0
1 18 9 3 17 0
35 -2 1 -40 -47 0
8 33 -13 -46 -20 0
48 -49 1 19 -22 0
-13 -49 15 -23 50 0
-27 20 -4 36 9 0
44 1 24 45 4 0
-40 -24 -33 -14 20 0
-26 15 33 47 41 0
4 17 -45 -40 -29 0
-48 39 10 19 35 0
-30 -37 -40 28 43 0
8 23 43 29 13 0
42 -47 -4 10 1 0
40 -41 23 -33 1 0
-12 39 40 -9 -21 0
-19 1 -22 25 7 0
-23 11 -1 34 -31 0
-41 -45 2 25 -34 0
2 17 -42 -47 3 0
-36 25 -30 -33 -13 0
-7 -12 -33 -27 9 0
-39 8 16 33 31 0
3 11 -36 -6 -17 0
41 49 3 -17 26 0
9 19 -17 -14 8 0
-39 -20 19 24 50 0
-29 34 -1 -17 -32 0
33 5 -11 29 12 0
-31 -7 -24 32 -10 0
15 9 8 -13 50 0
26 -35 3 12 50 0
-40 21 -17 -43 6 0
46 12 30 1 37 0
45 -10 28 47 46 0
47 -19 -35 -22 28 0
23 29 42 -10 9 0
7 45 -14 9 24 0
-22 -47 10 45 -11 0
-36 -23 20 -7 -37 0
35 49 -5 31 -11 0
-15 3 -48 6 10 0
21 1 -17 13 -31 0
1 -2 51 0
-1 -2 -51 0
1 2 -51 0
-1 2 51 0
3 5 52 0
-3 5 -52 0
3 -5 -52 0
-3 -5 52 0
6 -7 53 0
-6 -7 -53 0
6 7 -53 0
-6 7 53 0
9 -11 54 0
-9 -11 -54 0
9 11 -54 0
-9 11 54 0
12 -15 55 0
-12 -15 -55 0
12 15 -55 0
-12 15 55 0
-16 -17 56 0
16 -17 -56 0
-16 17 -56 0
16 17 56 0
-18 20 57 0
18 20 -57 0
-18 -20 -57 0
18 -20 57 0
23 -24 58 0
-23 -24 -58 0
23 24 -58 0
-23 24 58 0
28 29 59 0
-28 29 -59 0
28 -29 -59 0
-28 -29 59 0
-32 -34 60 0
32 -34 -60 0
-32 34 -60 0
32 34 60 0
-35 -36 61 0
35 -36 -61 0
-35 36 -61 0
35 36 61 0
39 -40 62 0
-39 -40 -62 0
39 40 -62 0
-39 40 62 0
-46 48 63 0
46 48 -63 0
-46 -48 -63 0
46 -48 63 0
51 -52 64 0
-51 -52 -64 0
51 52 -64 0
-51 52 64 0
53 -54 65 0
-53 -54 -65 0
53 54 -65 0
-53 54 65 0
55 -56 66 0
-55 -56 -66 0
55 56 -66 0
-55 56 66 0
57 -58 67 0
-57 -58 -67 0
57 58 -67 0
-57 58 67 0
59 -60 68 0
-59 -60 -68 0
59 60 -68 0
-59 60 68 0
61 -62 69 0
-61 -62 -69 0
61 62 -69 0
-61 62 69 0
63 -64 70 0
-63 -64 -70 0
63 64 -70 0
-63 64 70 0
65 -66 71 0
-65 -66 -71 0
65 66 -71 0
-65 66 71 0
67 -68 72 0
-67 -68 -72 0
67 68 -72 0
-67 68 72 0
69 -70 73 0
-69 -70 -73 0
69 70 -73 0
-69 70 73 0
71 -72 74 0
-71 -72 -74 0
71 72 -74 0
-71 72 74 0
73 74 0
-73 -74 0
-2 4 75 0
2 4 -75 0
-2 -4 -75 0
2 -4 75 0
-8 9 76 0
8 9 -76 0
-8 -9 -76 0
8 -9 76 0
10 -12 77 0
-10 -12 -77 0
10 12 -77 0
-10 12 77 0
-13 -15 78 0
13 -15 -78 0
-13 15 -78 0
13 15 78 0
-17 -19 79 0
17 -19 -79 0
-17 19 -79 0
17 19 79 0
21 -22 80 0
-21 -22 -80 0
21 22 -80 0
-21 22 80 0
-23 24 81 0
23 24 -81 0
-23 -24 -81 0
23 -24 81 0
25 -31 82 0
-25 -31 -82 0
25 31 -82 0
-25 31 82 0
33 35 83 0
-33 35 -83 0
33 -35 -83 0
-33 -35 83 0
37 -38 84 0
-37 -38 -84 0
37 38 -84 0
-37 38 84 0
-40 -41 85 0
40 -41 -85 0
-40 41 -85 0
40 41 85 0
-45 46 86 0
45 46 -86 0
-45 -46 -86 0
45 -46 86 0
74 -75 87 0
-74 -75 -87 0
74 75 -87 0
-74 75 87 0
76 -77 88 0
-76 -77 -88 0
76 77 -88 0
-76 77 88 0
78 -79 89 0
-78 -79 -89 0
78 79 -89 0
-78 79 89 0
80 -81 90 0
-80 -81 -90 0
80 81 -90 0
-80 81 90 0
82 -83 91 0
-82 -83 -91 0
82 83 -91 0
-82 83 91 0
84 -85 92 0
-84 -85 -92 0
84 85 -92 0
-84 85 92 0
86 -87 93 0
-86 -87 -93 0
86 87 -93 0
-86 87 93 0
88 -89 94 0
-88 -89 -94 0
88 89 -94 0
-88 89 94 0
90 -91 95 0
-90 -91 -95 0
90 91 -95 0
-90 91 95 0
92 -93 96 0
-92 -93 -96 0
92 93 -96 0
-92 93 96 0
94 -95 97 0
-94 -95 -97 0
94 95 -97 0
-94 95 97 0
96 97 0
-96 -97 0
-6 7 98 0
6 7 -98 0
-6 -7 -98 0
6 -7 98 0
8 -9 99 0
-8 -9 -99 0
8 9 -99 0
-8 9 99 0
10 -11 100 0
-10 -11 -100 0
10 11 -100 0
-10 11 100 0
12 -15 101 0
-12 -15 -101 0
12 15 -101 0
-12 15 101 0
-16 17 102 0
16 17 -102 0
-16 -17 -102 0
16 -17 102 0
-18 -20 103 0
18 -20 -103 0
-18 20 -103 0
18 20 103 0
-21 22 104 0
21 22 -104 0
-21 -22 -104 0
21 -22 104 0
23 -26 105 0
-23 -26 -105 0
23 26 -105 0
-23 26 105 0
-28 30 106 0
28 30 -106 0
-28 -30 -106 0
28 -30 106 0
-31 32 107 0
31 32 -107 0
-31 -32 -107 0
31 -32 107 0
-35 -37 108 0
35 -37 -108 0
-35 37 -108 0
35 37 108 0
-40 41 109 0
40 41 -109 0
-40 -41 -109 0
40 -41 109 0
43 44 110 0
-43 44 -110 0
43 -44 -110 0
-43 -44 110 0
-45 -47 111 0
45 -47 -111 0
-45 47 -111 0
45 47 111 0
-48 50 112 0
48 50 -112 0
-48 -50 -112 0
48 -50 112 0
98 -99 113 0
-98 -99 -113 0
98 99 -113 0
-98 99 113 0
100 -101 114 0
-100 -101 -114 0
100 101 -114 0
-100 101 114 0
102 -103 115 0
-102 -103 -115 0
102 103 -115 0
-102 103 115 0
104 -105 116 0
-104 -105 -116 0
104 105 -116 0
-104 105 116 0
106 -107 117 0
-106 -107 -117 0
106 107 -117 0
-106 107 117 0
108 -109 118 0
-108 -109 -118 0
108 109 -118 0
-108 109 118 0
110 -111 119 0
-110 -111 -119 0
110 111 -119 0
-110 111 119 0
112 -113 120 0
-112 -113 -120 0
112 113 -120 0
-112 113 120 0
114 -115 121 0
-114 -115 -121 0
114 115 -121 0
-114 115 121 0
116 -117 122 0
-116 -117 -122 0
116 117 -122 0
-116 117 122 0
118 -119 123 0
-118 -119 -123 0
118 119 -123 0
-118 119 123 0
120 -121 124 0
-120 -121 -124 0
120 121 -124 0
-120 121 124 0
122 -123 125 0
-122 -123 -125 0
122 123 -125 0
-122 123 125 0
124 125 0
-124 -125 0
1 -3 126 0
-1 -3 -126 0
1 3 -126 0
-1 3 126 0
-4 -6 127 0
4 -6 -127 0
-4 6 -127 0
4 6 127 0
-7 9 128 0
7 9 -128 0
-7 -9 -128 0
7 -9 128 0
12 13 129 0
-12 13 -129 0
12 -13 -129 0
-12 -13 129 0
17 -19 130 0
-17 -19 -130 0
17 19 -130 0
-17 19 130 0
-20 22 131 0
20 22 -131 0
-20 -22 -131 0
20 -22 131 0
26 -28 132 0
-26 -28 -132 0
26 28 -132 0
-26 28 132 0
30 31 133 0
-30 31 -133 0
30 -31 -133 0
-30 -31 133 0
-34 -35 134 0
34 -35 -134 0
-34 35 -134 0
34 35 134 0
-36 37 135 0
36 37 -135 0
-36 -37 -135 0
36 -37 135 0
-40 -41 136 0
40 -41 -136 0
-40 41 -136 0
40 41 136 0
43 -47 137 0
-43 -47 -137 0
43 47 -137 0
-43 47 137 0
126 -127 138 0
-126 -127 -138 0
126 127 -138 0
-126 127 138 0
128 -129 139 0
-128 -129 -139 0
128 129 -139 0
-128 129 139 0
130 -131 140 0
-130 -131 -140 0
130 131 -140 0
-130 131 140 0
132 -133 141 0
-132 -133 -141 0
132 133 -141 0
-132 133 141 0
134 -135 142 0
-134 -135 -142 0
134 135 -142 0
-134 135 142 0
136 -137 143 0
-136 -137 -143 0
136 137 -143 0
-136 137 143 0
138 -139 144 0
-138 -139 -144 0
138 139 -144 0
-138 139 144 0
140 -141 145 0
-140 -141 -145 0
140 141 -145 0
-140 141 145 0
142 -143 146 0
-142 -143 -146 0
142 143 -146 0
-142 143 146 0
-144 -145 146 0
144 -145 -146 0
-144 145 -146 0
144 145 146 0
-1 -6 147 0
1 -6 -147 0
-1 6 -147 0
1 6 147 0
8 -11 148 0
-8 -11 -148 0
8 11 -148 0
-8 11 148 0
14 16 149 0
-14 16 -149 0
14 -16 -149 0
-14 -16 149 0
19 -20 150 0
-19 -20 -150 0
19 20 -150 0
-19 20 150 0
21 -23 151 0
-21 -23 -151 0
21 23 -151 0
-21 23 151 0
-28 35 152 0
28 35 -152 0
-28 -35 -152 0
28 -35 152 0
-36 38 153 0
36 38 -153 0
-36 -38 -153 0
36 -38 153 0
40 -41 154 0
-40 -41 -154 0
40 41 -154 0
-40 41 154 0
42 43 155 0
-42 43 -155 0
42 -43 -155 0
-42 -43 155 0
-44 -47 156 0
44 -47 -156 0
-44 47 -156 0
44 47 156 0
146 -147 157 0
-146 -147 -157 0
146 147 -157 0
-146 147 157 0
148 -149 158 0
-148 -149 -158 0
148 149 -158 0
-148 149 158 0
150 -151 159 0
-150 -151 -159 0
150 151 -159 0
-150 151 159 0
152 -153 160 0
-152 -153 -160 0
152 153 -160 0
-152 153 160 0
154 -155 161 0
-154 -155 -161 0
154 155 -161 0
-154 155 161 0
156 -157 162 0
-156 -157 -162 0
156 157 -162 0
-156 157 162 0
158 -159 163 0
-158 -159 -163 0
158 159 -163 0
-158 159 163 0
160 -161 164 0
-160 -161 -164 0
160 161 -164 0
-160 161 164 0
-162 -163 164 0
162 -163 -164 0
-162 163 -164 0
162 163 164 0
4 10 165 0
-4 10 -165 0
4 -10 -165 0
-4 -10 165 0
12 16 166 0
-12 16 -166 0
12 -16 -166 0
-12 -16 166 0
-19 20 167 0
19 20 -167 0
-19 -20 -167 0
19 -20 167 0
-21 22 168 0
21 22 -168 0
-21 -22 -168 0
21 -22 168 0
-24 -25 169 0
24 -25 -169 0
-24 25 -169 0
24 25 169 0
26 -27 170 0
-26 -27 -170 0
26 27 -170 0
-26 27 170 0
-29 30 171 0
29 30 -171 0
-29 -30 -171 0
29 -30 171 0
32 36 172 0
-32 36 -172 0
32 -36 -172 0
-32 -36 172 0
-39 40 173 0
39 40 -173 0
-39 -40 -173 0
39 -40 173 0
-42 -43 174 0
42 -43 -174 0
-42 43 -174 0
42 43 174 0
-44 -45 175 0
44 -45 -175 0
-44 45 -175 0
44 45 175 0
-46 49 176 0
46 49 -176 0
-46 -49 -176 0
46 -49 176 0
165 -166 177 0
-165 -166 -177 0
165 166 -177 0
-165 166 177 0
167 -168 178 0
-167 -168 -178 0
167 168 -178 0
-167 168 178 0
169 -170 179 0
-169 -170 -179 0
169 170 -179 0
-169 170 179 0
171 -172 180 0
-171 -172 -180 0
171 172 -180 0
-171 172 180 0
173 -174 181 0
-173 -174 -181 0
173 174 -181 0
-173 174 181 0
175 -176 182 0
-175 -176 -182 0
175 176 -182 0
-175 176 182 0
177 -178 183 0
-177 -178 -183 0
177 178 -183 0
-177 178 183 0
179 -180 184 0
-179 -180 -184 0
179 180 -184 0
-179 180 184 0
181 -182 185 0
-181 -182 -185 0
181 182 -185 0
-181 182 185 0
-183 -184 185 0
183 -184 -185 0
-183 184 -185 0
183 184 185 0
-5 8 186 0
5 8 -186 0
-5 -8 -186 0
5 -8 186 0
-13 -14 187 0
13 -14 -187 0
-13 14 -187 0
13 14 187 0
-15 -19 188 0
15 -19 -188 0
-15 19 -188 0
15 19 188 0
-21 22 189 0
21 22 -189 0
-21 -22 -189 0
21 -22 189 0
-27 29 190 0
27 29 -190 0
-27 -29 -190 0
27 -29 190 0
35 37 191 0
-35 37 -191 0
35 -37 -191 0
-35 -37 191 0
41 -42 192 0
-41 -42 -192 0
41 42 -192 0
-41 42 192 0
-46 -47 193 0
46 -47 -193 0
-46 47 -193 0
46 47 193 0
186 -187 194 0
-186 -187 -194 0
186 187 -194 0
-186 187 194 0
188 -189 195 0
-188 -189 -195 0
188 189 -195 0
-188 189 195 0
190 -191 196 0
-190 -191 -196 0
190 191 -196 0
-190 191 196 0
192 -193 197 0
-192 -193 -197 0
192 193 -197 0
-192 193 197 0
194 -195 198 0
-194 -195 -198 0
194 195 -198 0
-194 195 198 0
196 -197 199 0
-196 -197 -199 0
196 197 -199 0
-196 197 199 0
198 199 0
-198 -199 0
-2 -5 200 0
2 -5 -200 0
-2 5 -200 0
2 5 200 0
-8 9 201 0
8 9 -201 0
-8 -9 -201 0
8 -9 201 0
12 15 202 0
-12 15 -202 0
12 -15 -202 0
-12 -15 202 0
-17 -18 203 0
17 -18 -203 0
-17 18 -203 0
17 18 203 0
-20 -24 204 0
20 -24 -204 0
-20 24 -204 0
20 24 204 0
-25 -28 205 0
25 -28 -205 0
-25 28 -205 0
25 28 205 0
34 -35 206 0
-34 -35 -206 0
34 35 -206 0
-34 35 206 0
36 -37 207 0
-36 -37 -207 0
36 37 -207 0
-36 37 207 0
39 -40 208 0
-39 -40 -208 0
39 40 -208 0
-39 40 208 0
-43 -46 209 0
43 -46 -209 0
-43 46 -209 0
43 46 209 0
-47 -48 210 0
47 -48 -210 0
-47 48 -210 0
47 48 210 0
200 -201 211 0
-200 -201 -211 0
200 201 -211 0
-200 201 211 0
202 -203 212 0
-202 -203 -212 0
202 203 -212 0
-202 203 212 0
204 -205 213 0
-204 -205 -213 0
204 205 -213 0
-204 205 213 0
206 -207 214 0
-206 -207 -214 0
206 207 -214 0
-206 207 214 0
208 -209 215 0
-208 -209 -215 0
208 209 -215 0
-208 209 215 0
210 -211 216 0
-210 -211 -216 0
210 211 -216 0
-210 211 216 0
212 -213 217 0
-212 -213 -217 0
212 213 -217 0
-212 213 217 0
214 -215 218 0
-214 -215 -218 0
214 215 -218 0
-214 215 218 0
-216 -217 218 0
216 -217 -218 0
-216 217 -218 0
216 217 218 0
-2 -3 219 0
2 -3 -219 0
-2 3 -219 0
2 3 219 0
5 -7 220 0
-5 -7 -220 0
5 7 -220 0
-5 7 220 0
-8 -10 221 0
8 -10 -221 0
-8 10 -221 0
8 10 221 0
11 -12 222 0
-11 -12 -222 0
11 12 -222 0
-11 12 222 0
13 -14 223 0
-13 -14 -223 0
13 14 -223 0
-13 14 223 0
-15 17 224 0
15 17 -224 0
-15 -17 -224 0
15 -17 224 0
20 -23 225 0
-20 -23 -225 0
20 23 -225 0
-20 23 225 0
-25 28 226 0
25 28 -226 0
-25 -28 -226 0
25 -28 226 0
29 30 227 0
-29 30 -227 0
29 -30 -227 0
-29 -30 227 0
-34 35 228 0
34 35 -228 0
-34 -35 -228 0
34 -35 228 0
-39 42 229 0
39 42 -229 0
-39 -42 -229 0
39 -42 229 0
45 47 230 0
-45 47 -230 0
45 -47 -230 0
-45 -47 230 0
49 50 231 0
-49 50 -231 0
49 -50 -231 0
-49 -50 231 0
219 -220 232 0
-219 -220 -232 0
219 220 -232 0
-219 220 232 0
221 -222 233 0
-221 -222 -233 0
221 222 -233 0
-221 222 233 0
223 -224 234 0
-223 -224 -234 0
223 224 -234 0
-223 224 234 0
225 -226 235 0
-225 -226 -235 0
225 226 -235 0
-225 226 235 0
227 -228 236 0
-227 -228 -236 0
227 228 -236 0
-227 228 236 0
229 -230 237 0
-229 -230 -237 0
229 230 -237 0
-229 230 237 0
231 -232 238 0
-231 -232 -238 0
231 232 -238 0
-231 232 238 0
233 -234 239 0
-233 -234 -239 0
233 234 -239 0
-233 234 239 0
235 -236 240 0
-235 -236 -240 0
235 236 -240 0
-235 236 240 0
237 -238 241 0
-237 -238 -241 0
237 238 -241 0
-237 238 241 0
239 -240 242 0
-239 -240 -242 0
239 240 -242 0
-239 240 242 0
241 242 0
-241 -242 0
1 -3 243 0
-1 -3 -243 0
1 3 -243 0
-1 3 243 0
4 5 244 0
-4 5 -244 0
4 -5 -244 0
-4 -5 244 0
7 12 245 0
-7 12 -245 0
7 -12 -245 0
-7 -12 245 0
13 -16 246 0
-13 -16 -246 0
13 16 -246 0
-13 16 246 0
-18 19 247 0
18 19 -247 0
-18 -19 -247 0
18 -19 247 0
-20 21 248 0
20 21 -248 0
-20 -21 -248 0
20 -21 248 0
-22 -24 249 0
22 -24 -249 0
-22 24 -249 0
22 24 249 0
26 -27 250 0
-26 -27 -250 0
26 27 -250 0
-26 27 250 0
-29 -31 251 0
29 -31 -251 0
-29 31 -251 0
29 31 251 0
-34 35 252 0
34 35 -252 0
-34 -35 -252 0
34 -35 252 0
36 -39 253 0
-36 -39 -253 0
36 39 -253 0
-36 39 253 0
-41 42 254 0
41 42 -254 0
-41 -42 -254 0
41 -42 254 0
46 -50 255 0
-46 -50 -255 0
46 50 -255 0
-46 50 255 0
243 -244 256 0
-243 -244 -256 0
243 244 -256 0
-243 244 256 0
245 -246 257 0
-245 -246 -257 0
245 246 -257 0
-245 246 257 0
247 -248 258 0
-247 -248 -258 0
247 248 -258 0
-247 248 258 0
249 -250 259 0
-249 -250 -259 0
249 250 -259 0
-249 250 259 0
251 -252 260 0
-251 -252 -260 0
251 252 -260 0
-251 252 260 0
253 -254 261 0
-253 -254 -261 0
253 254 -261 0
-253 254 261 0
255 -256 262 0
-255 -256 -262 0
255 256 -262 0
-255 256 262 0
257 -258 263 0
-257 -258 -263 0
257 258 -263 0
-257 258 263 0
259 -260 264 0
-259 -260 -264 0
259 260 -264 0
-259 260 264 0
261 -262 265 0
-261 -262 -265 0
261 262 -265 0
-261 262 265 0
263 -264 266 0
-263 -264 -266 0
263 264 -266 0
-263 264 266 0
265 266 0
-265 -266 0
-2 -4 267 0
2 -4 -267 0
-2 4 -267 0
2 4 267 0
14 15 268 0
-14 15 -268 0
14 -15 -268 0
-14 -15 268 0
19 -20 269 0
-19 -20 -269 0
19 20 -269 0
-19 20 269 0
-21 22 270 0
21 22 -270 0
-21 -22 -270 0
21 -22 270 0
24 -25 271 0
-24 -25 -271 0
24 25 -271 0
-24 25 271 0
-26 27 272 0
26 27 -272 0
-26 -27 -272 0
26 -27 272 0
28 31 273 0
-28 31 -273 0
28 -31 -273 0
-28 -31 273 0
34 -36 274 0
-34 -36 -274 0
34 36 -274 0
-34 36 274 0
-37 -40 275 0
37 -40 -275 0
-37 40 -275 0
37 40 275 0
-43 -48 276 0
43 -48 -276 0
-43 48 -276 0
43 48 276 0
266 -267 277 0
-266 -267 -277 0
266 267 -277 0
-266 267 277 0
268 -269 278 0
-268 -269 -278 0
268 269 -278 0
-268 269 278 0
270 -271 279 0
-270 -271 -279 0
270 271 -279 0
-270 271 279 0
272 -273 280 0
-272 -273 -280 0
272 273 -280 0
-272 273 280 0
274 -275 281 0
-274 -275 -281 0
274 275 -281 0
-274 275 281 0
276 -277 282 0
-276 -277 -282 0
276 277 -282 0
-276 277 282 0
278 -279 283 0
-278 -279 -283 0
278 279 -283 0
-278 279 283 0
280 -281 284 0
-280 -281 -284 0
280 281 -284 0
-280 281 284 0
-282 -283 284 0
282 -283 -284 0
-282 283 -284 0
282 283 284 0
1 5 285 0
-1 5 -285 0
1 -5 -285 0
-1 -5 285 0
7 -8 286 0
-7 -8 -286 0
7 8 -286 0
-7 8 286 0
-11 18 287 0
11 18 -287 0
-11 -18 -287 0
11 -18 287 0
-19 -22 288 0
19 -22 -288 0
-19 22 -288 0
19 22 288 0
-23 -26 289 0
23 -26 -289 0
-23 26 -289 0
23 26 289 0
30 -31 290 0
-30 -31 -290 0
30 31 -290 0
-30 31 290 0
-32 33 291 0
32 33 -291 0
-32 -33 -291 0
32 -33 291 0
34 -35 292 0
-34 -35 -292 0
34 35 -292 0
-34 35 292 0
36 -37 293 0
-36 -37 -293 0
36 37 -293 0
-36 37 293 0
-38 -44 294 0
38 -44 -294 0
-38 44 -294 0
38 44 294 0
45 46 295 0
-45 46 -295 0
45 -46 -295 0
-45 -46 295 0
49 -50 296 0
-49 -50 -296 0
49 50 -296 0
-49 50 296 0
285 -286 297 0
-285 -286 -297 0
285 286 -297 0
-285 286 297 0
287 -288 298 0
-287 -288 -298 0
287 288 -298 0
-287 288 298 0
289 -290 299 0
-289 -290 -299 0
289 290 -299 0
-289 290 299 0
291 -292 300 0
-291 -292 -300 0
291 292 -300 0
-291 292 300 0
293 -294 301 0
-293 -294 -301 0
293 294 -301 0
-293 294 301 0
295 -296 302 0
-295 -296 -302 0
295 296 -302 0
-295 296 302 0
297 -298 303 0
-297 -298 -303 0
297 298 -303 0
-297 298 303 0
299 -300 304 0
-299 -300 -304 0
299 300 -304 0
-299 300 304 0
301 -302 305 0
-301 -302 -305 0
301 302 -305 0
-301 302 305 0
-303 -304 305 0
303 -304 -305 0
-303 304 -305 0
303 304 305 0
-1 3 306 0
1 3 -306 0
-1 -3 -306 0
1 -3 306 0
4 -6 307 0
-4 -6 -307 0
4 6 -307 0
-4 6 307 0
-8 12 308 0
8 12 -308 0
-8 -12 -308 0
8 -12 308 0
13 -15 309 0
-13 -15 -309 0
13 15 -309 0
-13 15 309 0
-17 -20 310 0
17 -20 -310 0
-17 20 -310 0
17 20 310 0
-24 -31 311 0
24 -31 -311 0
-24 31 -311 0
24 31 311 0
-32 33 312 0
32 33 -312 0
-32 -33 -312 0
32 -33 312 0
-36 -38 313 0
36 -38 -313 0
-36 38 -313 0
36 38 313 0
-41 -43 314 0
41 -43 -314 0
-41 43 -314 0
41 43 314 0
44 45 315 0
-44 45 -315 0
44 -45 -315 0
-44 -45 315 0
-46 -49 316 0
46 -49 -316 0
-46 49 -316 0
46 49 316 0
306 -307 317 0
-306 -307 -317 0
306 307 -317 0
-306 307 317 0
308 -309 318 0
-308 -309 -318 0
308 309 -318 0
-308 309 318 0
310 -311 319 0
-310 -311 -319 0
310 311 -319 0
-310 311 319 0
312 -313 320 0
-312 -313 -320 0
312 313 -320 0
-312 313 320 0
314 -315 321 0
-314 -315 -321 0
314 315 -321 0
-314 315 321 0
316 -317 322 0
-316 -317 -322 0
316 317 -322 0
-316 317 322 0
318 -319 323 0
-318 -319 -323 0
318 319 -323 0
-318 319 323 0
320 -321 324 0
-320 -321 -324 0
320 321 -324 0
-320 321 324 0
-322 -323 324 0
322 -323 -324 0
-322 323 -324 0
322 323 324 0
1 -4 325 0
-1 -4 -325 0
1 4 -325 0
-1 4 325 0
5 7 326 0
-5 7 -326 0
5 -7 -326 0
-5 -7 326 0
9 13 327 0
-9 13 -327 0
9 -13 -327 0
-9 -13 327 0
16 -21 328 0
-16 -21 -328 0
16 21 -328 0
-16 21 328 0
24 -25 329 0
-24 -25 -329 0
24 25 -329 0
-24 25 329 0
-26 30 330 0
26 30 -330 0
-26 -30 -330 0
26 -30 330 0
-36 -37 331 0
36 -37 -331 0
-36 37 -331 0
36 37 331 0
40 41 332 0
-40 41 -332 0
40 -41 -332 0
-40 -41 332 0
42 44 333 0
-42 44 -333 0
42 -44 -333 0
-42 -44 333 0
-47 -49 334 0
47 -49 -334 0
-47 49 -334 0
47 49 334 0
325 -326 335 0
-325 -326 -335 0
325 326 -335 0
-325 326 335 0
327 -328 336 0
-327 -328 -336 0
327 328 -336 0
-327 328 336 0
329 -330 337 0
-329 -330 -337 0
329 330 -337 0
-329 330 337 0
331 -332 338 0
-331 -332 -338 0
331 332 -338 0
-331 332 338 0
333 -334 339 0
-333 -334 -339 0
333 334 -339 0
-333 334 339 0
335 -336 340 0
-335 -336 -340 0
335 336 -340 0
-335 336 340 0
337 -338 341 0
-337 -338 -341 0
337 338 -341 0
-337 338 341 0
-339 -340 341 0
339 -340 -341 0
-339 340 -341 0
339 340 341 0
-1 5 342 0
1 5 -342 0
-1 -5 -342 0
1 -5 342 0
-7 -8 343 0
7 -8 -343 0
-7 8 -343 0
7 8 343 0
-10 11 344 0
10 11 -344 0
-10 -11 -344 0
10 -11 344 0
12 14 345 0
-12 14 -345 0
12 -14 -345 0
-12 -14 345 0
17 -19 346 0
-17 -19 -346 0
17 19 -346 0
-17 19 346 0
-22 -23 347 0
22 -23 -347 0
-22 23 -347 0
22 23 347 0
26 -27 348 0
-26 -27 -348 0
26 27 -348 0
-26 27 348 0
-35 36 349 0
35 36 -349 0
-35 -36 -349 0
35 -36 349 0
-39 -41 350 0
39 -41 -350 0
-39 41 -350 0
39 41 350 0
-44 -49 351 0
44 -49 -351 0
-44 49 -351 0
44 49 351 0
342 -343 352 0
-342 -343 -352 0
342 343 -352 0
-342 343 352 0
344 -345 353 0
-344 -345 -353 0
344 345 -353 0
-344 345 353 0
346 -347 354 0
-346 -347 -354 0
346 347 -354 0
-346 347 354 0
348 -349 355 0
-348 -349 -355 0
348 349 -355 0
-348 349 355 0
350 -351 356 0
-350 -351 -356 0
350 351 -356 0
-350 351 356 0
352 -353 357 0
-352 -353 -357 0
352 353 -357 0
-352 353 357 0
354 -355 358 0
-354 -355 -358 0
354 355 -358 0
-354 355 358 0
-356 -357 358 0
356 -357 -358 0
-356 357 -358 0
356 357 358 0
1 4 359 0
-1 4 -359 0
1 -4 -359 0
-1 -4 359 0
-6 7 360 0
6 7 -360 0
-6 -7 -360 0
6 -7 360 0
10 11 361 0
-10 11 -361 0
10 -11 -361 0
-10 -11 361 0
-13 14 362 0
13 14 -362 0
-13 -14 -362 0
13 -14 362 0
16 -17 363 0
-16 -17 -363 0
16 17 -363 0
-16 17 363 0
18 20 364 0
-18 20 -364 0
18 -20 -364 0
-18 -20 364 0
22 -25 365 0
-22 -25 -365 0
22 25 -365 0
-22 25 365 0
26 33 366 0
-26 33 -366 0
26 -33 -366 0
-26 -33 366 0
34 -35 367 0
-34 -35 -367 0
34 35 -367 0
-34 35 367 0
36 37 368 0
-36 37 -368 0
36 -37 -368 0
-36 -37 368 0
-38 40 369 0
38 40 -369 0
-38 -40 -369 0
38 -40 369 0
41 -42 370 0
-41 -42 -370 0
41 42 -370 0
-41 42 370 0
-43 44 371 0
43 44 -371 0
-43 -44 -371 0
43 -44 371 0
-46 47 372 0
46 47 -372 0
-46 -47 -372 0
46 -47 372 0
358 -359 373 0
-358 -359 -373 0
358 359 -373 0
-358 359 373 0
360 -361 374 0
-360 -361 -374 0
360 361 -374 0
-360 361 374 0
362 -363 375 0
-362 -363 -375 0
362 363 -375 0
-362 363 375 0
364 -365 376 0
-364 -365 -376 0
364 365 -376 0
-364 365 376 0
366 -367 377 0
-366 -367 -377 0
366 367 -377 0
-366 367 377 0
368 -369 378 0
-368 -369 -378 0
368 369 -378 0
-368 369 378 0
370 -371 379 0
-370 -371 -379 0
370 371 -379 0
-370 371 379 0
372 -373 380 0
-372 -373 -380 0
372 373 -380 0
-372 373 380 0
374 -375 381 0
-374 -375 -381 0
374 375 -381 0
-374 375 381 0
376 -377 382 0
-376 -377 -382 0
376 377 -382 0
-376 377 382 0
378 -379 383 0
-378 -379 -383 0
378 379 -383 0
-378 379 383 0
380 -381 384 0
-380 -381 -384 0
380 381 -384 0
-380 381 384 0
382 -383 385 0
-382 -383 -385 0
382 383 -385 0
-382 383 385 0
384 385 0
-384 -385 0
2 7 386 0
-2 7 -386 0
2 -7 -386 0
-2 -7 386 0
14 16 387 0
-14 16 -387 0
14 -16 -387 0
-14 -16 387 0
17 18 388 0
-17 18 -388 0
17 -18 -388 0
-17 -18 388 0
-20 25 389 0
20 25 -389 0
-20 -25 -389 0
20 -25 389 0
-27 28 390 0
27 28 -390 0
-27 -28 -390 0
27 -28 390 0
-29 -31 391 0
29 -31 -391 0
-29 31 -391 0
29 31 391 0
32 -37 392 0
-32 -37 -392 0
32 37 -392 0
-32 37 392 0
-39 -41 393 0
39 -41 -393 0
-39 41 -393 0
39 41 393 0
42 45 394 0
-42 45 -394 0
42 -45 -394 0
-42 -45 394 0
46 -47 395 0
-46 -47 -395 0
46 47 -395 0
-46 47 395 0
-48 50 396 0
48 50 -396 0
-48 -50 -396 0
48 -50 396 0
386 -387 397 0
-386 -387 -397 0
386 387 -397 0
-386 387 397 0
388 -389 398 0
-388 -389 -398 0
388 389 -398 0
-388 389 398 0
390 -391 399 0
-390 -391 -399 0
390 391 -399 0
-390 391 399 0
392 -393 400 0
-392 -393 -400 0
392 393 -400 0
-392 393 400 0
394 -395 401 0
-394 -395 -401 0
394 395 -401 0
-394 395 401 0
396 -397 402 0
-396 -397 -402 0
396 397 -402 0
-396 397 402 0
398 -399 403 0
-398 -399 -403 0
398 399 -403 0
-398 399 403 0
400 -401 404 0
-400 -401 -404 0
400 401 -404 0
-400 401 404 0
-402 -403 404 0
402 -403 -404 0
-402 403 -404 0
402 403 404 0
1 4 405 0
-1 4 -405 0
1 -4 -405 0
-1 -4 405 0
5 8 406 0
-5 8 -406 0
5 -8 -406 0
-5 -8 406 0
10 11 407 0
-10 11 -407 0
10 -11 -407 0
-10 -11 407 0
14 -15 408 0
-14 -15 -408 0
14 15 -408 0
-14 15 408 0
-16 18 409 0
16 18 -409 0
-16 -18 -409 0
16 -18 409 0
19 21 410 0
-19 21 -410 0
19 -21 -410 0
-19 -21 410 0
24 26 411 0
-24 26 -411 0
24 -26 -411 0
-24 -26 411 0
-30 33 412 0
30 33 -412 0
-30 -33 -412 0
30 -33 412 0
-34 -35 413 0
34 -35 -413 0
-34 35 -413 0
34 35 413 0
36 -37 414 0
-36 -37 -414 0
36 37 -414 0
-36 37 414 0
38 -41 415 0
-38 -41 -415 0
38 41 -415 0
-38 41 415 0
-44 47 416 0
44 47 -416 0
-44 -47 -416 0
44 -47 416 0
48 49 417 0
-48 49 -417 0
48 -49 -417 0
-48 -49 417 0
405 -406 418 0
-405 -406 -418 0
405 406 -418 0
-405 406 418 0
407 -408 419 0
-407 -408 -419 0
407 408 -419 0
-407 408 419 0
409 -410 420 0
-409 -410 -420 0
409 410 -420 0
-409 410 420 0
411 -412 421 0
-411 -412 -421 0
411 412 -421 0
-411 412 421 0
413 -414 422 0
-413 -414 -422 0
413 414 -422 0
-413 414 422 0
415 -416 423 0
-415 -416 -423 0
415 416 -423 0
-415 416 423 0
417 -418 424 0
-417 -418 -424 0
417 418 -424 0
-417 418 424 0
419 -420 425 0
-419 -420 -425 0
419 420 -425 0
-419 420 425 0
421 -422 426 0
-421 -422 -426 0
421 422 -426 0
-421 422 426 0
423 -424 427 0
-423 -424 -427 0
423 424 -427 0
-423 424 427 0
425 -426 428 0
-425 -426 -428 0
425 426 -428 0
-425 426 428 0
427 428 0
-427 -428 0
-2 -3 429 0
2 -3 -429 0
-2 3 -429 0
2 3 429 0
-5 -10 430 0
5 -10 -430 0
-5 10 -430 0
5 10 430 0
15 -16 431 0
-15 -16 -431 0
15 16 -431 0
-15 16 431 0
18 -20 432 0
-18 -20 -432 0
18 20 -432 0
-18 20 432 0
-21 23 433 0
21 23 -433 0
-21 -23 -433 0
21 -23 433 0
-24 28 434 0
24 28 -434 0
-24 -28 -434 0
24 -28 434 0
-29 34 435 0
29 34 -435 0
-29 -34 -435 0
29 -34 435 0
-37 -38 436 0
37 -38 -436 0
-37 38 -436 0
37 38 436 0
-39 40 437 0
39 40 -437 0
-39 -40 -437 0
39 -40 437 0
-42 44 438 0
42 44 -438 0
-42 -44 -438 0
42 -44 438 0
-47 -48 439 0
47 -48 -439 0
-47 48 -439 0
47 48 439 0
-49 50 440 0
49 50 -440 0
-49 -50 -440 0
49 -50 440 0
429 -430 441 0
-429 -430 -441 0
429 430 -441 0
-429 430 441 0
431 -432 442 0
-431 -432 -442 0
431 432 -442 0
-431 432 442 0
433 -434 443 0
-433 -434 -443 0
433 434 -443 0
-433 434 443 0
435 -436 444 0
-435 -436 -444 0
435 436 -444 0
-435 436 444 0
437 -438 445 0
-437 -438 -445 0
437 438 -445 0
-437 438 445 0
439 -440 446 0
-439 -440 -446 0
439 440 -446 0
-439 440 446 0
441 -442 447 0
-441 -442 -447 0
441 442 -447 0
-441 442 447 0
443 -444 448 0
-443 -444 -448 0
443 444 -448 0
-443 444 448 0
445 -446 449 0
-445 -446 -449 0
445 446 -449 0
-445 446 449 0
-447 -448 449 0
447 -448 -449 0
-447 448 -449 0
447 448 449 0
-2 3 450 0
2 3 -450 0
-2 -3 -450 0
2 -3 450 0
-4 7 451 0
4 7 -451 0
-4 -7 -451 0
4 -7 451 0
-11 -12 452 0
11 -12 -452 0
-11 12 -452 0
11 12 452 0
-13 15 453 0
13 15 -453 0
-13 -15 -453 0
13 -15 453 0
16 -17 454 0
-16 -17 -454 0
16 17 -454 0
-16 17 454 0
-22 24 455 0
22 24 -455 0
-22 -24 -455 0
22 -24 455 0
-28 -29 456 0
28 -29 -456 0
-28 29 -456 0
28 29 456 0
-30 31 457 0
30 31 -457 0
-30 -31 -457 0
30 -31 457 0
33 -34 458 0
-33 -34 -458 0
33 34 -458 0
-33 34 458 0
36 38 459 0
-36 38 -459 0
36 -38 -459 0
-36 -38 459 0
39 -40 460 0
-39 -40 -460 0
39 40 -460 0
-39 40 460 0
41 42 461 0
-41 42 -461 0
41 -42 -461 0
-41 -42 461 0
-44 45 462 0
44 45 -462 0
-44 -45 -462 0
44 -45 462 0
-46 -48 463 0
46 -48 -463 0
-46 48 -463 0
46 48 463 0
450 -451 464 0
-450 -451 -464 0
450 451 -464 0
-450 451 464 0
452 -453 465 0
-452 -453 -465 0
452 453 -465 0
-452 453 465 0
454 -455 466 0
-454 -455 -466 0
454 455 -466 0
-454 455 466 0
456 -457 467 0
-456 -457 -467 0
456 457 -467 0
-456 457 467 0
458 -459 468 0
-458 -459 -468 0
458 459 -468 0
-458 459 468 0
460 -461 469 0
-460 -461 -469 0
460 461 -469 0
-460 461 469 0
462 -463 470 0
-462 -463 -470 0
462 463 -470 0
-462 463 470 0
464 -465 471 0
-464 -465 -471 0
464 465 -471 0
-464 465 471 0
466 -467 472 0
-466 -467 -472 0
466 467 -472 0
-466 467 472 0
468 -469 473 0
-468 -469 -473 0
468 469 -473 0
-468 469 473 0
470 -471 474 0
-470 -471 -474 0
470 471 -474 0
-470 471 474 0
472 -473 475 0
-472 -473 -475 0
472 473 -475 0
-472 473 475 0
474 475 0
-474 -475 0
